(set-logic QF_S)
(set-option :produce-models true)

(declare-fun s897 () String)
(declare-fun s825 () String)
(declare-fun s851 () String)
(declare-fun s841 () String)
(declare-fun s861 () String)
(declare-fun s856 () String)
(declare-fun s844 () String)
(declare-fun s847 () String)

(assert (not (= s825 s851 )))
(assert (= s847 "g" ))
(assert (= s856 "l" ))
(assert (= s825 s861 ))
(assert (= s841 "p" ))
(assert (= s851 "r" ))
(assert (= s825 s897 ))
(assert (not (= s825 s844 )))
(assert (= s897 "q" ))
(assert (not (= s825 s847 )))
(assert (= s861 "h" ))
(assert (= s844 "k" ))
(assert (not (= s825 s841 )))
(assert (not (= s825 s897 )))
(assert (not (= s825 s856 )))


(check-sat)
(get-model)
